CUST NO.   XCOORD.   YCOORD.    DEMAND   READY TIME1   DUE DATE1 READY TIME2   DUE DATE2   SERVICE TIME1  SERVICE TIME2	
    0          35      35           0       0          9999         0         9999              0          0
    1          41      49          10     0            9999         200         210             10         10
    2          35      17           7      0           9999          80          90             10         10
    3          55      45          13     0            9999         136         146             10         10
    4          55      20          19     0            9999         169         179             10         10
    5          15      30          26      0           9999          54          64             10         10
    6          25      30           3      0           9999         111         121             10         10
    7          20      50           5      0           9999          95         101             10         10
    8          10      43           9      0           9999         125         135             10         10
    9          55      60          16      0           9999         120         129             10         10
   10          30      60          16     124             134         140         148             10         10          
   11          20      65          12      67              77          80          97             10         10          
   12          50      35          19      63              73          73          93             10         10          
   13          30      25          23     159             169         169         189             10         10          
   14          15      10          20      32              42          52          62             10         10          
   15          30       5           8      61              71          71          71             10         10          
   16          10      20          19      75              85          85          85             10         10          
   17           5      2           2     157             167         167         167             10         10           
   18           5      44           12     157             200         200         300             10         10          
   19           3      55           5     157             300         300         400             10         10          
   20           2      92           1     157             400         400         500             10         10          
   21           9      20           7     157             500         500         600             10         10          
   22           16      40           2     157             600         600         900             10         10          
   23           26      103           2     157             600         600         900             10         10         
   24           66      11           12     157             600         600         900             10         10         
   25           86      14           5     157             600         600         900             10         10         
   26           106      105           9     17             600         600         900             10         10         
   27           106      22           40     17             600         600         900             10         10         
   28           200      1           11     17             600         600         900             10         10         
   29           206      35           3     17             600         600         900             10         10         
   30           126      45           61     17             600         600         900             10         10         
   31           136      92           8     17             600         600         900             10         10         
